Problem:    
Rows:       256
Columns:    89 (72 integer, 72 binary)
Non-zeros:  800
Status:     INTEGER OPTIMAL
Objective:  value = 3.88413 (MINimum)

   No.   Row name        Activity     Lower bound   Upper bound
------ ------------    ------------- ------------- -------------
     1 r.5                   1003.88             0               
     2 r.6                  -998.423      -999.573               
     3 r.7                   3.88413             0               
     4 r.8                  -998.742      -998.901               
     5 r.9                   1003.88             0               
     6 r.10                 -998.912      -999.469               
     7 r.11                  3.88413             0               
     8 r.12                 -998.537      -998.696               
     9 r.13                  3.88413             0               
    10 r.14                  2.29546      -999.347               
    11 r.15                  1003.88             0               
    12 r.16                 -997.705      -998.609               
    13 r.17                  1003.88             0               
    14 r.18                 -999.443      -999.602               
    15 r.19                  3.88413             0               
    16 r.20                 0.903997      -999.145               
    17 r.21                  3.88413             0               
    18 r.22                  1.57734      -999.655               
    19 r.23                  1003.88             0               
    20 r.24                 -999.096      -999.255               
    21 r.25                  3.88413             0               
    22 r.26                   0.1591      -999.819               
    23 r.27                  1003.88             0               
    24 r.28                 -999.841      -999.841               
    25 r.29                  1003.88             0               
    26 r.30                 -996.116      -997.693               
    27 r.31                  3.88413             0               
    28 r.32                  3.88413      -996.391               
    29 r.33                  3.88413             0               
    30 r.34                  3.88413      -999.322               
    31 r.35                  1003.88             0               
    32 r.36                 -996.116      -998.411               
    33 r.37                        1             1             = 
    34 r.38                        1             1             = 
    35 r.39                        1             1             = 
    36 r.40                        1             1             = 
    37 r.41                        1             1             = 
    38 r.42                        1             1             = 
    39 r.43                        1             1             = 
    40 r.44                        1             1             = 
    41 r.45                        2             2               
    42 r.46                       -2         -1001               
    43 r.47                -0.489177      -999.469               
    44 r.48                     1000             2               
    45 r.49                    -1000         -1001               
    46 r.50                  2000.21      -998.696               
    47 r.51                     1001             2               
    48 r.52                    -1001         -1001               
    49 r.53                  2000.72      -999.347               
    50 r.54                     1001             2               
    51 r.55                    -1001         -1001               
    52 r.56                  3001.04      -998.609               
    53 r.57                        2             2               
    54 r.58                       -2         -1001               
    55 r.59                 -1.02044      -999.602               
    56 r.60                     1000             2               
    57 r.61                    -1000         -1001               
    58 r.62                  2999.65      -999.145               
    59 r.63                     1001             2               
    60 r.64                    -1001         -1001               
    61 r.65                     2000      -999.655               
    62 r.66                     1001             2               
    63 r.67                    -1001         -1001               
    64 r.68                  2999.65      -999.255               
    65 r.69                 -998.582      -999.573               
    66 r.70                 -998.901      -998.901               
    67 r.71                 -998.582      -999.573               
    68 r.72                 -998.901      -998.901               
    69 r.73                 -997.693      -997.693               
    70 r.74                  2.30679      -996.391               
    71 r.75                  2.62631      -997.693               
    72 r.76                  1002.63      -996.391               
    73 r.77                     1001             2               
    74 r.78                    -1001         -1001               
    75 r.79                  2002.31      -999.322               
    76 r.80                     1001             2               
    77 r.81                    -1001         -1001               
    78 r.82                  3002.63      -998.411               
    79 r.83                        2             2               
    80 r.84                       -2         -1001               
    81 r.85                 0.489177      0.426967               
    82 r.86                     1000             2               
    83 r.87                    -1000         -1001               
    84 r.88                  1999.79       1.09872               
    85 r.89                     1001             2               
    86 r.90                    -1001         -1001               
    87 r.91                  2001.21      -999.347               
    88 r.92                     1001             2               
    89 r.93                    -1001         -1001               
    90 r.94                  3000.83      -998.609               
    91 r.95                        2             2               
    92 r.96                       -2         -1001               
    93 r.97                -0.531264      -999.602               
    94 r.98                     1000             2               
    95 r.99                    -1000         -1001               
    96 r.100                 2999.44      -999.145               
    97 r.101                    1001             2               
    98 r.102                   -1001         -1001               
    99 r.103                 2000.49      -999.655               
   100 r.104                    1001             2               
   101 r.105                   -1001         -1001               
   102 r.106                 2999.44      -999.255               
   103 r.107                -999.071      -999.469               
   104 r.108                -998.696      -998.696               
   105 r.109                -999.071      -999.469               
   106 r.110                -998.696      -998.696               
   107 r.111                       2             2               
   108 r.112                      -2         -1001               
   109 r.113                -997.204      -997.693               
   110 r.114                    1000             2               
   111 r.115                   -1000         -1001               
   112 r.116                 3002.42      -996.391               
   113 r.117                 2.79597      -999.322               
   114 r.118                -997.204      -998.411               
   115 r.119                 1002.42      -999.322               
   116 r.120                 2.42106      -998.411               
   117 r.121                    1001             2               
   118 r.122                   -1001         -1001               
   119 r.123                 1999.28      0.426967               
   120 r.124                    1001             2               
   121 r.125                   -1001         -1001               
   122 r.126                 998.962       1.09872               
   123 r.127                    1001             2               
   124 r.128                   -1001         -1001               
   125 r.129                 1998.79      0.531264               
   126 r.130                    1001             2               
   127 r.131                   -1001         -1001               
   128 r.132                 999.168       1.30397               
   129 r.133                 1.73856      -999.347               
   130 r.134                -998.261      -998.609               
   131 r.135                 1.39147      -999.347               
   132 r.136                -998.609      -998.609               
   133 r.137                    1000             2               
   134 r.138                   -1000         -1001               
   135 r.139                 1999.28      -999.655               
   136 r.140                       2             2               
   137 r.141                      -2         -1001               
   138 r.142                -1.39147      -999.255               
   139 r.143                 2.13636      -999.347               
   140 r.144                -997.864      -998.609               
   141 r.145                 2.13636      -999.347               
   142 r.146                -997.864      -998.609               
   143 r.147                    1001             2               
   144 r.148                   -1001         -1001               
   145 r.149                 2001.59      -997.693               
   146 r.150                    1001             2               
   147 r.151                   -1001         -1001               
   148 r.152                 2001.59      -996.391               
   149 r.153                 1.58867      -999.322               
   150 r.154                -998.411      -998.411               
   151 r.155                 1.58867      -999.322               
   152 r.156                -998.411      -998.411               
   153 r.157                       2             2               
   154 r.158                      -2         -1001               
   155 r.159                 1.02044      0.426967               
   156 r.160                    1000             2               
   157 r.161                   -1000         -1001               
   158 r.162                 1000.35       1.09872               
   159 r.163                       2             2               
   160 r.164                      -2         -1001               
   161 r.165                0.531264      0.531264               
   162 r.166                    1000             2               
   163 r.167                   -1000         -1001               
   164 r.168                 1000.56       1.30397               
   165 r.169                    1001             2               
   166 r.170                   -1001         -1001               
   167 r.171                 2001.02      -999.655               
   168 r.172                    1001             2               
   169 r.173                   -1001         -1001               
   170 r.174                    2000      -999.255               
   171 r.175                -999.602      -999.602               
   172 r.176                0.744897      -999.145               
   173 r.177                -999.602      -999.602               
   174 r.178                0.744897      -999.145               
   175 r.179                       2             2               
   176 r.180                      -2         -1001               
   177 r.181                -996.673      -997.693               
   178 r.182                    1000             2               
   179 r.183                   -1000         -1001               
   180 r.184                 2002.98      -996.391               
   181 r.185                 3.32723      -999.322               
   182 r.186                -996.673      -998.411               
   183 r.187                 2.98013      -999.322               
   184 r.188                 -997.02      -998.411               
   185 r.189                    1001             2               
   186 r.190                   -1001         -1001               
   187 r.191                    2000      0.426967               
   188 r.192                    1001             2               
   189 r.193                   -1001         -1001               
   190 r.194                 1000.35       1.09872               
   191 r.195                    1001             2               
   192 r.196                   -1001         -1001               
   193 r.197                 1999.51      0.531264               
   194 r.198                    1001             2               
   195 r.199                   -1001         -1001               
   196 r.200                 1000.56       1.30397               
   197 r.201                    1000             2               
   198 r.202                   -1000         -1001               
   199 r.203                 2000.72      0.653442               
   200 r.204                       2             2               
   201 r.205                      -2         -1001               
   202 r.206                 1.39147       1.39146               
   203 r.207                    1001             2               
   204 r.208                   -1001         -1001               
   205 r.209                 1998.98        0.3978               
   206 r.210                    1001             2               
   207 r.211                   -1001         -1001               
   208 r.212                    2000      0.854797               
   209 r.213                 1.41824      -999.655               
   210 r.214                -999.255      -999.255               
   211 r.215                 1.41824      -999.655               
   212 r.216                -999.255      -999.255               
   213 r.217                -997.693      -997.693               
   214 r.218                 2.30679      -996.391               
   215 r.219                 -997.02      -997.693               
   216 r.220                 2.98013      -996.391               
   217 r.221                 2.30679      -999.322               
   218 r.222                -997.693      -998.411               
   219 r.223                 2.98013      -999.322               
   220 r.224                 -997.02      -998.411               
   221 r.225                       2             2               
   222 r.226                      -2         -1001               
   223 r.227                 997.204      0.531264               
   224 r.228                    1000             2               
   225 r.229                   -1000         -1001               
   226 r.230                 997.579       1.30397               
   227 r.231                    1001             2               
   228 r.232                   -1001         -1001               
   229 r.233                 1998.41      0.653442               
   230 r.234                    1001             2               
   231 r.235                   -1001         -1001               
   232 r.236                 1998.41       1.39146               
   233 r.237                       2             2               
   234 r.238                      -2         -1001               
   235 r.239                 996.673        0.3978               
   236 r.240                    1000             2               
   237 r.241                   -1000         -1001               
   238 r.242                 1997.02      0.854797               
   239 r.243                    1001             2               
   240 r.244                   -1001         -1001               
   241 r.245                    2000      -999.322               
   242 r.246                    1001             2               
   243 r.247                   -1001         -1001               
   244 r.248                    2000      -998.411               
   245 r.249                    1001             2               
   246 r.250                   -1001         -1001               
   247 r.251                 1997.69      0.426967               
   248 r.252                    1001             2               
   249 r.253                   -1001         -1001               
   250 r.254                 997.374       1.09872               
   251 r.255                    1001             2               
   252 r.256                   -1001         -1001               
   253 r.257                    2000       2.30679               
   254 r.258                    1001             2               
   255 r.259                   -1001         -1001               
   256 r.260                    2000       3.60867               

   No. Column name       Activity     Lower bound   Upper bound
------ ------------    ------------- ------------- -------------
     1 tt                    3.88413             0               
     2 s_1_1        *              1             0             1 
     3 t_1_1                 2.30679             0               
     4 s_1_7        *              1             0             1 
     5 s_2_1        *              0             0             1 
     6 t_2_1                 1002.63             0               
     7 s_2_7        *              0             0             1 
     8 s_1_2        *              1             0             1 
     9 t_1_2                 2.79597             0               
    10 s_1_8        *              0             0             1 
    11 s_2_2        *              0             0             1 
    12 t_2_2                 1002.42             0               
    13 s_2_8        *              1             0             1 
    14 s_1_3        *              0             0             1 
    15 t_1_3                 1.58867             0               
    16 s_2_3        *              1             0             1 
    17 t_2_3                 1.58867             0               
    18 s_1_4        *              1             0             1 
    19 t_1_4                 3.32723             0               
    20 s_2_4        *              0             0             1 
    21 t_2_4                 2.98013             0               
    22 s_1_5        *              0             0             1 
    23 t_1_5                 2.30679             0               
    24 s_2_5        *              1             0             1 
    25 t_2_5                 2.98013             0               
    26 s_1_6        *              0             0             1 
    27 t_1_6                 3.72503             0               
    28 s_2_6        *              1             0             1 
    29 t_2_6                 3.72503             0               
    30 t_1_7                       0             0               
    31 t_2_7                       0             0               
    32 t_1_8                       0             0               
    33 t_2_8                       0             0               
    34 r_1_1_2      *              0             0             1 
    35 u_1_1_2      *              0             0             1 
    36 r_2_1_2      *              1             0             1 
    37 u_2_1_2      *              0             0             1 
    38 r_1_1_3      *              1             0             1 
    39 u_1_1_3      *              0             0             1 
    40 r_2_1_3      *              1             0             1 
    41 u_2_1_3      *              0             0             1 
    42 r_1_1_4      *              0             0             1 
    43 u_1_1_4      *              0             0             1 
    44 r_2_1_4      *              1             0             1 
    45 u_2_1_4      *              0             0             1 
    46 r_1_1_5      *              1             0             1 
    47 u_1_1_5      *              0             0             1 
    48 r_2_1_5      *              1             0             1 
    49 u_2_1_5      *              0             0             1 
    50 r_1_1_8      *              1             0             1 
    51 u_1_1_8      *              0             0             1 
    52 r_2_1_8      *              1             0             1 
    53 u_2_1_8      *              0             0             1 
    54 r_1_2_3      *              1             0             1 
    55 u_1_2_3      *              0             0             1 
    56 r_2_2_3      *              1             0             1 
    57 u_2_2_3      *              0             0             1 
    58 r_1_2_4      *              0             0             1 
    59 u_1_2_4      *              0             0             1 
    60 r_2_2_4      *              1             0             1 
    61 u_2_2_4      *              0             0             1 
    62 r_1_2_5      *              1             0             1 
    63 u_1_2_5      *              0             0             1 
    64 r_2_2_5      *              1             0             1 
    65 u_2_2_5      *              0             0             1 
    66 r_1_2_7      *              0             0             1 
    67 u_1_2_7      *              1             0             1 
    68 r_2_2_7      *              1             0             1 
    69 u_2_2_7      *              0             0             1 
    70 r_1_3_5      *              1             0             1 
    71 u_1_3_5      *              0             0             1 
    72 r_2_3_5      *              0             0             1 
    73 u_2_3_5      *              0             0             1 
    74 r_1_3_7      *              1             0             1 
    75 u_1_3_7      *              0             0             1 
    76 r_2_3_7      *              1             0             1 
    77 u_2_3_7      *              0             0             1 
    78 r_1_4_5      *              1             0             1 
    79 u_1_4_5      *              0             0             1 
    80 r_2_4_5      *              1             0             1 
    81 u_2_4_5      *              0             0             1 
    82 r_1_4_7      *              0             0             1 
    83 u_1_4_7      *              1             0             1 
    84 r_2_4_7      *              1             0             1 
    85 u_2_4_7      *              0             0             1 
    86 r_1_7_8      *              1             0             1 
    87 u_1_7_8      *              0             0             1 
    88 r_2_7_8      *              1             0             1 
    89 u_2_7_8      *              0             0             1 

Integer feasibility conditions:

KKT.PE: max.abs.err = 4.55e-13 on row 46
        max.rel.err = 7.57e-17 on row 90
        High quality

KKT.PB: max.abs.err = 0.00e+00 on row 0
        max.rel.err = 0.00e+00 on row 0
        High quality

End of output
